presolving:
(round 1, fast)       77 del vars, 0 del conss, 0 add conss, 0 chg bounds, 0 chg sides, 0 chg coeffs, 0 upgd conss, 0 impls, 152 clqs
(round 2, exhaustive) 77 del vars, 0 del conss, 0 add conss, 0 chg bounds, 0 chg sides, 0 chg coeffs, 152 upgd conss, 0 impls, 152 clqs
   (0.0s) probing: 51/5700 (0.9%) - 0 fixings, 0 aggregations, 0 implications, 0 bound changes
   (0.0s) probing aborted: 50/50 successive totally useless probings
   Deactivated symmetry handling methods, since SCIP was built without symmetry detector (SYM=none).
presolving (3 rounds: 3 fast, 2 medium, 2 exhaustive):
 77 deleted vars, 0 deleted constraints, 0 added constraints, 0 tightened bounds, 0 added holes, 0 changed sides, 0 changed coefficients
 0 implications, 152 cliques
presolved problem has 5775 variables (5700 bin, 0 int, 0 impl, 75 cont) and 5702 constraints
    152 constraints of type <setppc>
   5550 constraints of type <linear>
Presolving Time: 1.00

 time | node  | left  |LP iter|LP it/n|mem/heur|mdpt |vars |cons |rows |cuts |sepa|confs|strbr|  dualbound   | primalbound  |  gap   | compl. 
p 1.0s|     1 |     0 |     4 |     - | vbounds|   0 |5775 |5708 |5702 |   0 |  0 |   5 |   0 | 0.000000e+00 | 1.969903e+03 |    Inf | unknown
  1.0s|     1 |     0 |   244 |     - |    80M |   0 |5775 |5708 |5702 |   0 |  0 |   5 |   0 | 4.914146e+02 | 1.969903e+03 | 300.86%| unknown
  1.0s|     1 |     0 |   360 |     - |    82M |   0 |5775 |5709 |5763 |  61 |  1 |   6 |   0 | 5.008895e+02 | 1.969903e+03 | 293.28%| unknown
  1.0s|     1 |     0 |   457 |     - |    83M |   0 |5775 |5709 |5793 |  91 |  2 |   6 |   0 | 5.150343e+02 | 1.969903e+03 | 282.48%| unknown
  1.0s|     1 |     0 |   545 |     - |    83M |   0 |5775 |5710 |5806 | 104 |  3 |   7 |   0 | 5.374844e+02 | 1.969903e+03 | 266.50%| unknown
  1.0s|     1 |     0 |   572 |     - |    84M |   0 |5775 |5710 |5820 | 118 |  4 |   7 |   0 | 5.379554e+02 | 1.969903e+03 | 266.18%| unknown
  1.0s|     1 |     0 |   580 |     - |    85M |   0 |5775 |5711 |5824 | 122 |  5 |   8 |   0 | 5.379554e+02 | 1.969903e+03 | 266.18%| unknown
  1.0s|     1 |     0 |   616 |     - |    86M |   0 |5775 |5712 |5827 | 125 |  6 |   9 |   0 | 5.391954e+02 | 1.969903e+03 | 265.34%| unknown
  1.0s|     1 |     0 |   642 |     - |    87M |   0 |5775 |5713 |5842 | 140 |  7 |  10 |   0 | 5.393448e+02 | 1.969903e+03 | 265.24%| unknown
  1.0s|     1 |     0 |   690 |     - |    88M |   0 |5775 |5714 |5848 | 146 |  8 |  11 |   0 | 5.406833e+02 | 1.969903e+03 | 264.34%| unknown
  1.0s|     1 |     0 |   711 |     - |    88M |   0 |5775 |5715 |5854 | 152 |  9 |  12 |   0 | 5.407266e+02 | 1.969903e+03 | 264.31%| unknown
  2.0s|     1 |     0 |   716 |     - |    89M |   0 |5775 |5716 |5857 | 155 | 10 |  13 |   0 | 5.407266e+02 | 1.969903e+03 | 264.31%| unknown
  2.0s|     1 |     0 |   722 |     - |    90M |   0 |5775 |5717 |5861 | 159 | 11 |  14 |   0 | 5.407266e+02 | 1.969903e+03 | 264.31%| unknown
  2.0s|     1 |     0 |   737 |     - |    90M |   0 |5775 |5718 |5866 | 164 | 12 |  15 |   0 | 5.410030e+02 | 1.969903e+03 | 264.12%| unknown
  2.0s|     1 |     0 |   743 |     - |    91M |   0 |5775 |5718 |5872 | 170 | 13 |  15 |   0 | 5.410030e+02 | 1.969903e+03 | 264.12%| unknown
 time | node  | left  |LP iter|LP it/n|mem/heur|mdpt |vars |cons |rows |cuts |sepa|confs|strbr|  dualbound   | primalbound  |  gap   | compl. 
  2.0s|     1 |     0 |   774 |     - |    91M |   0 |5775 |5719 |5875 | 173 | 15 |  16 |   0 | 5.411588e+02 | 1.969903e+03 | 264.02%| unknown
  2.0s|     1 |     0 |   776 |     - |    92M |   0 |5775 |5720 |5828 | 175 | 16 |  17 |   0 | 5.411588e+02 | 1.969903e+03 | 264.02%| unknown
  2.0s|     1 |     0 |   785 |     - |    93M |   0 |5775 |5721 |5832 | 179 | 17 |  18 |   0 | 5.411588e+02 | 1.969903e+03 | 264.02%| unknown
  2.0s|     1 |     0 |   787 |     - |    93M |   0 |5775 |5722 |5834 | 181 | 18 |  19 |   0 | 5.411588e+02 | 1.969903e+03 | 264.02%| unknown
  2.0s|     1 |     0 |   792 |     - |    94M |   0 |5775 |5723 |5838 | 185 | 19 |  20 |   0 | 5.411588e+02 | 1.969903e+03 | 264.02%| unknown
  2.0s|     1 |     0 |   801 |     - |    94M |   0 |5775 |5724 |5848 | 195 | 21 |  21 |   0 | 5.411588e+02 | 1.969903e+03 | 264.02%| unknown
  2.0s|     1 |     0 |   803 |     - |    94M |   0 |5775 |5725 |5850 | 197 | 23 |  22 |   0 | 5.411588e+02 | 1.969903e+03 | 264.02%| unknown
  3.0s|     1 |     0 |   809 |     - |    94M |   0 |5775 |5726 |5817 | 203 | 25 |  23 |   0 | 5.411588e+02 | 1.969903e+03 | 264.02%| unknown
d 7.0s|     1 |     0 |  9293 |     - |conflict|   0 |5775 |5732 |5817 |   0 | 25 |  29 |   0 | 5.411588e+02 | 8.715716e+02 |  61.06%| unknown
  8.0s|     1 |     0 |  9293 |     - |    96M |   0 |5775 |5732 |5817 | 203 | 25 |  29 |   0 | 5.411588e+02 | 8.715716e+02 |  61.06%| unknown
  8.0s|     1 |     0 |  9298 |     - |    96M |   0 |5775 |5733 |5822 | 208 | 26 |  30 |   0 | 5.411588e+02 | 8.715716e+02 |  61.06%| unknown
 12.0s|     1 |     2 |  9298 |     - |    96M |   0 |5775 |5734 |5822 | 208 | 27 |  31 |  42 | 5.411739e+02 | 8.715716e+02 |  61.05%| unknown
*31.0s|    13 |    11 | 10381 | 797.6 |strongbr|  12 |5775 |5735 |5830 | 276 |  1 |  32 | 257 | 5.411739e+02 | 5.760923e+02 |   6.45%| unknown
  111s|   100 |    74 | 15752 | 150.9 |   114M |  22 |5775 |6258 |5802 | 462 |  1 | 568 |1077 | 5.411739e+02 | 5.760923e+02 |   6.45%| unknown
  131s|   200 |   168 | 21142 | 102.2 |   120M |  22 |5775 |6424 |5810 | 634 |  1 | 750 |1258 | 5.411739e+02 | 5.760923e+02 |   6.45%| unknown
 time | node  | left  |LP iter|LP it/n|mem/heur|mdpt |vars |cons |rows |cuts |sepa|confs|strbr|  dualbound   | primalbound  |  gap   | compl. 
  152s|   300 |   236 | 26841 |  87.1 |   124M |  25 |5775 |6665 |5800 | 696 |  1 |1006 |1438 | 5.411851e+02 | 5.760923e+02 |   6.45%| unknown
  166s|   400 |   334 | 33751 |  82.6 |   126M |  25 |5775 |6676 |5804 | 800 |  1 |1062 |1531 | 5.411905e+02 | 5.760923e+02 |   6.45%| unknown
  176s|   500 |   434 | 40584 |  79.7 |   128M |  25 |5775 |6706 |5800 | 884 |  1 |1132 |1588 | 5.411906e+02 | 5.760923e+02 |   6.45%| unknown
  185s|   600 |   526 | 45071 |  73.9 |   131M |  31 |5775 |6747 |5806 | 977 |  1 |1195 |1630 | 5.411906e+02 | 5.760923e+02 |   6.45%| unknown
  194s|   700 |   620 | 49940 |  70.3 |   132M |  35 |5775 |6819 |5810 |1041 |  1 |1299 |1683 | 5.411920e+02 | 5.760923e+02 |   6.45%| unknown
  200s|   800 |   710 | 54262 |  66.9 |   134M |  35 |5775 |6881 |5809 |1082 |  1 |1389 |1712 | 5.411920e+02 | 5.760923e+02 |   6.45%| unknown
  207s|   900 |   806 | 60587 |  66.5 |   136M |  37 |5775 |6895 |5803 |1187 |  1 |1460 |1734 | 5.411923e+02 | 5.760923e+02 |   6.45%| unknown
  212s|  1000 |   892 | 64934 |  64.2 |   138M |  40 |5775 |6982 |5806 |1222 |  1 |1587 |1753 | 5.411942e+02 | 5.760923e+02 |   6.45%| unknown
  218s|  1100 |   986 | 69496 |  62.5 |   140M |  40 |5775 |7066 |5808 |1250 |  1 |1696 |1785 | 5.411944e+02 | 5.760923e+02 |   6.45%| unknown
  226s|  1200 |  1079 | 76731 |  63.3 |   141M |  47 |5775 |7143 |5804 |1268 |  1 |1811 |1812 | 5.411944e+02 | 5.760923e+02 |   6.45%| unknown
  235s|  1300 |  1179 | 83721 |  63.8 |   143M |  47 |5775 |7279 |5805 |1292 |  1 |2000 |1837 | 5.411944e+02 | 5.760923e+02 |   6.45%| unknown
  243s|  1400 |  1277 | 90547 |  64.1 |   146M |  47 |5775 |7360 |5807 |1352 |  1 |2150 |1860 | 5.411964e+02 | 5.760923e+02 |   6.45%| unknown
  253s|  1500 |  1375 | 98063 |  64.9 |   147M |  47 |5775 |7402 |5804 |1408 |  1 |2237 |1876 | 5.411978e+02 | 5.760923e+02 |   6.45%| unknown
  260s|  1600 |  1475 |103894 |  64.5 |   149M |  47 |5775 |7498 |5808 |1460 |  2 |2381 |1892 | 5.411978e+02 | 5.760923e+02 |   6.45%| unknown
d 263s|  1645 |  1383 |106244 |  64.1 |fracdivi|  47 |5775 |7554 |5806 |   0 |  1 |2460 |1897 | 5.411978e+02 | 5.656554e+02 |   4.52%| unknown
Restart triggered after 50 consecutive estimations that the remaining tree will be large
(run 1, node 1679) performing user restart

(restart) converted 96 cuts from the global cut pool into linear constraints

presolving:
(round 1, fast)       2822 del vars, 3 del conss, 0 add conss, 0 chg bounds, 0 chg sides, 12067 chg coeffs, 0 upgd conss, 0 impls, 227 clqs
(round 2, exhaustive) 2822 del vars, 1378 del conss, 0 add conss, 0 chg bounds, 0 chg sides, 12067 chg coeffs, 0 upgd conss, 0 impls, 227 clqs
(round 3, exhaustive) 2822 del vars, 1378 del conss, 0 add conss, 0 chg bounds, 0 chg sides, 12067 chg coeffs, 56 upgd conss, 0 impls, 227 clqs
(round 4, fast)       2822 del vars, 1395 del conss, 0 add conss, 0 chg bounds, 0 chg sides, 12067 chg coeffs, 56 upgd conss, 29 impls, 227 clqs
(round 5, exhaustive) 2822 del vars, 1414 del conss, 0 add conss, 0 chg bounds, 0 chg sides, 12150 chg coeffs, 56 upgd conss, 29 impls, 227 clqs
(round 6, exhaustive) 2822 del vars, 1414 del conss, 0 add conss, 0 chg bounds, 0 chg sides, 13038 chg coeffs, 56 upgd conss, 29 impls, 227 clqs
presolving (7 rounds: 7 fast, 5 medium, 5 exhaustive):
 2822 deleted vars, 1416 deleted constraints, 0 added constraints, 0 tightened bounds, 0 added holes, 0 changed sides, 13038 changed coefficients
 29 implications, 227 cliques
presolved problem has 2953 variables (2878 bin, 0 int, 0 impl, 75 cont) and 6319 constraints
     29 constraints of type <varbound>
      3 constraints of type <knapsack>
    227 constraints of type <setppc>
   4215 constraints of type <linear>
   1804 constraints of type <logicor>
     41 constraints of type <bounddisjunction>
Presolving Time: 1.00
transformed 3/5 original solutions to the transformed problem space

 time | node  | left  |LP iter|LP it/n|mem/heur|mdpt |vars |cons |rows |cuts |sepa|confs|strbr|  dualbound   | primalbound  |  gap   | compl. 
  267s|     1 |     0 |107783 |     - |   158M |   0 |2953 |6319 |4423 |   0 |  0 |2563 |1905 | 5.411978e+02 | 5.656554e+02 |   4.52%| unknown
  267s|     1 |     0 |107783 |     - |   158M |   0 |2953 |6319 |4423 |   0 |  0 |2563 |1905 | 5.411978e+02 | 5.656554e+02 |   4.52%| unknown
  267s|     1 |     0 |107820 |     - |   158M |   0 |2953 |6319 |4467 |  44 |  1 |2563 |1905 | 5.411978e+02 | 5.656554e+02 |   4.52%| unknown
  267s|     1 |     0 |107823 |     - |   159M |   0 |2953 |6319 |4469 |  46 |  2 |2563 |1905 | 5.411978e+02 | 5.656554e+02 |   4.52%| unknown
  270s|     1 |     2 |110129 |     - |   160M |   0 |2953 |6334 |4469 |  46 |  4 |2578 |1934 | 5.411978e+02 | 5.656554e+02 |   4.52%| unknown
  297s|   100 |   101 |114606 |  63.8 |   162M |  29 |2953 |6407 |4427 |  56 |  1 |2665 |2350 | 5.411978e+02 | 5.656554e+02 |   4.52%| unknown
  300s|   200 |   199 |118389 |  62.4 |   162M |  39 |2953 |6567 |4428 |  65 |  1 |2829 |2374 | 5.411978e+02 | 5.656554e+02 |   4.52%| unknown
  306s|   300 |   295 |124286 |  62.3 |   165M |  39 |2953 |6713 |4427 | 100 |  1 |2986 |2407 | 5.411978e+02 | 5.656554e+02 |   4.52%| unknown
  310s|   400 |   395 |129665 |  61.8 |   167M |  39 |2953 |6767 |4430 | 168 |  1 |3056 |2427 | 5.411978e+02 | 5.656554e+02 |   4.52%| unknown
  315s|   500 |   491 |135201 |  61.5 |   169M |  39 |2953 |6863 |4432 | 242 |  1 |3171 |2455 | 5.411978e+02 | 5.656554e+02 |   4.52%| unknown
  320s|   600 |   589 |140355 |  61.1 |   170M |  39 |2953 |7009 |4435 | 311 |  1 |3342 |2474 | 5.411978e+02 | 5.656554e+02 |   4.52%| unknown
  327s|   700 |   689 |146821 |  61.3 |   173M |  39 |2953 |7135 |4434 | 419 |  1 |3535 |2511 | 5.411978e+02 | 5.656554e+02 |   4.52%| unknown
  333s|   800 |   787 |152552 |  61.1 |   174M |  39 |2953 |7225 |4429 | 514 |  1 |3680 |2534 | 5.411978e+02 | 5.656554e+02 |   4.52%| unknown
  338s|   900 |   885 |156985 |  60.4 |   174M |  39 |2953 |7314 |4430 | 568 |  1 |3826 |2560 | 5.412004e+02 | 5.656554e+02 |   4.52%| unknown
  341s|  1000 |   985 |160048 |  59.3 |   175M |  39 |2953 |7376 |4433 | 604 |  1 |3919 |2583 | 5.412198e+02 | 5.656554e+02 |   4.51%| unknown
 time | node  | left  |LP iter|LP it/n|mem/heur|mdpt |vars |cons |rows |cuts |sepa|confs|strbr|  dualbound   | primalbound  |  gap   | compl. 
* 342s|  1034 |   999 |160637 |  58.8 |strongbr|  39 |2953 |7390 |4432 | 610 |  1 |3939 |2584 | 5.412198e+02 | 5.551897e+02 |   2.58%| unknown
  346s|  1100 |  1061 |163598 |  58.5 |   176M |  39 |2953 |7433 |4427 | 671 |  2 |4049 |2605 | 5.412205e+02 | 5.551897e+02 |   2.58%| unknown
* 351s|  1192 |  1104 |167559 |  58.0 |strongbr|  39 |2953 |7671 |4428 | 768 |  1 |4429 |2629 | 5.412356e+02 | 5.531596e+02 |   2.20%|   0.36%
  352s|  1200 |  1114 |168072 |  58.0 |   178M |  39 |2953 |7669 |4428 | 792 |  1 |4484 |2645 | 5.412356e+02 | 5.531596e+02 |   2.20%|   0.37%
  359s|  1300 |  1205 |174571 |  58.2 |   180M |  39 |2953 |7698 |4428 | 969 |  1 |4759 |2681 | 5.412493e+02 | 5.531596e+02 |   2.20%|   0.63%
  366s|  1400 |  1279 |179882 |  58.1 |   181M |  39 |2953 |7713 |4433 |1032 |  1 |5065 |2728 | 5.412552e+02 | 5.531596e+02 |   2.20%|   0.90%
* 368s|  1416 |   854 |181121 |  58.2 |    LP  |  39 |2953 |6963 |4432 |1061 |  1 |5194 |2748 | 5.412552e+02 | 5.458563e+02 |   0.85%|   2.95%
d 368s|  1430 |   647 |181519 |  58.0 |pscostdi|  39 |2953 |6945 |4428 |   0 |  1 |5290 |2749 | 5.412669e+02 | 5.444780e+02 |   0.59%|   6.48%
  371s|  1500 |   659 |184314 |  57.6 |   181M |  39 |2953 |6833 |4433 |1143 |  1 |5378 |2750 | 5.412940e+02 | 5.444780e+02 |   0.59%|   9.33%
  374s|  1600 |   653 |187029 |  56.7 |   182M |  39 |2953 |6544 |4440 |1250 |  1 |5553 |2758 | 5.412954e+02 | 5.444780e+02 |   0.59%|  12.81%
  377s|  1700 |   647 |190724 |  56.1 |   182M |  39 |2953 |6380 |4430 |1315 |  2 |5661 |2760 | 5.413130e+02 | 5.444780e+02 |   0.58%|  16.85%
  380s|  1800 |   637 |194478 |  55.6 |   183M |  39 |2953 |6207 |4429 |1414 |  2 |5738 |2761 | 5.413559e+02 | 5.444780e+02 |   0.58%|  20.95%
* 382s|  1853 |   626 |195963 |  55.2 |    LP  |  39 |2953 |6107 |4428 |1431 |  1 |5767 |2762 | 5.413609e+02 | 5.443911e+02 |   0.56%|  21.40%
  383s|  1900 |   605 |197762 |  55.0 |   183M |  39 |2953 |5857 |4428 |1447 |  1 |5837 |2764 | 5.413699e+02 | 5.443911e+02 |   0.56%|  24.04%
* 383s|  1901 |   601 |197764 |  54.9 |    LP  |  39 |2953 |5857 |4428 |1447 |  1 |5837 |2764 | 5.413699e+02 | 5.443691e+02 |   0.55%|  24.04%
 time | node  | left  |LP iter|LP it/n|mem/heur|mdpt |vars |cons |rows |cuts |sepa|confs|strbr|  dualbound   | primalbound  |  gap   | compl. 
  386s|  2000 |   581 |200374 |  54.2 |   183M |  39 |2953 |5735 |4440 |1496 |  3 |5969 |2767 | 5.413910e+02 | 5.443691e+02 |   0.55%|  27.22%
  389s|  2100 |   559 |203641 |  53.6 |   183M |  39 |2953 |5655 |   0 |1538 |  0 |6050 |2768 | 5.414323e+02 | 5.443691e+02 |   0.54%|  30.97%
  392s|  2200 |   539 |206790 |  53.0 |   184M |  39 |2953 |5504 |   0 |1602 |  0 |6096 |2771 | 5.415173e+02 | 5.443691e+02 |   0.53%|  35.25%
  395s|  2300 |   507 |210501 |  52.6 |   184M |  39 |2953 |5434 |4440 |1695 |  0 |6167 |2773 | 5.415977e+02 | 5.443691e+02 |   0.51%|  40.37%
  398s|  2400 |   486 |214883 |  52.4 |   184M |  39 |2953 |5390 |4445 |1801 |  1 |6254 |2775 | 5.416164e+02 | 5.443691e+02 |   0.51%|  45.29%
  401s|  2500 |   442 |219630 |  52.3 |   184M |  39 |2953 |5356 |   0 |1885 |  0 |6320 |2777 | 5.417052e+02 | 5.443691e+02 |   0.49%|  52.06%
  404s|  2600 |   419 |223321 |  51.9 |   184M |  39 |2953 |5351 |4436 |1938 |  1 |6386 |2780 | 5.418649e+02 | 5.443691e+02 |   0.46%|  54.91%
  407s|  2700 |   410 |227092 |  51.6 |   184M |  39 |2953 |5353 |4454 |2007 |  0 |6475 |2781 | 5.418907e+02 | 5.443691e+02 |   0.46%|  57.39%
  410s|  2800 |   345 |231837 |  51.5 |   184M |  39 |2953 |5328 |4428 |2089 |  2 |6604 |2783 | 5.420076e+02 | 5.443691e+02 |   0.44%|  64.01%
  413s|  2900 |   288 |235882 |  51.3 |   185M |  39 |2953 |5263 |4436 |2170 |  2 |6681 |2784 | 5.421802e+02 | 5.443691e+02 |   0.40%|  70.80%
  416s|  3000 |   214 |240502 |  51.2 |   185M |  39 |2953 |5254 |   0 |2234 |  0 |6765 |2784 | 5.423716e+02 | 5.443691e+02 |   0.37%|  78.15%
  419s|  3100 |   186 |243844 |  50.8 |   185M |  39 |2953 |5249 |4444 |2262 |  1 |6855 |2787 | 5.424736e+02 | 5.443691e+02 |   0.35%|  82.58%
  422s|  3200 |   127 |247062 |  50.4 |   185M |  39 |2953 |5295 |   0 |2304 |  0 |6975 |2788 | 5.425863e+02 | 5.443691e+02 |   0.33%|  88.18%
  425s|  3300 |    59 |251366 |  50.3 |   185M |  39 |2953 |5269 |   0 |2380 |  0 |7077 |2790 | 5.427334e+02 | 5.443691e+02 |   0.30%|  93.81%
  428s|  3400 |    14 |255414 |  50.1 |   185M |  39 |2953 |5203 |   0 |2435 |  0 |7166 |2793 | 5.430370e+02 | 5.443691e+02 |   0.25%|  98.11%

SCIP Status        : problem is solved [optimal solution found]
Solving Time (sec) : 428.00
Solving Nodes      : 3431 (total of 5110 nodes in 2 runs)
Primal Bound       : +5.44369052670829e+02 (11 solutions)
Dual Bound         : +5.44369052670829e+02
Gap                : 0.00 %
Trying to solve problem with MTZ Solver Method...
Starting Solver, time limit setted to 10 minutes
Route:  [[0, 72], [1, 29], [2, 15], [3, 67], [4, 36], [5, 50], [6, 34], [7, 18], [8, 31], [9, 37], [10, 58], [11, 57], [12, 56], [13, 52], [14, 4], [15, 62], [16, 39], [17, 49], [18, 53], [19, 69], [20, 60], [21, 63], [22, 48], [23, 17], [24, 54], [25, 75], [26, 51], [27, 73], [28, 44], [29, 47], [30, 9], [31, 43], [32, 0], [33, 66], [34, 7], [35, 46], [36, 19], [37, 64], [38, 8], [39, 11], [40, 55], [41, 42], [42, 40], [43, 2], [44, 26], [45, 33], [46, 20], [47, 28], [48, 23], [49, 24], [50, 16], [51, 45], [52, 6], [53, 12], [54, 30], [55, 22], [56, 14], [57, 71], [58, 13], [59, 70], [60, 27], [61, 21], [62, 32], [63, 41], [64, 65], [65, 10], [66, 25], [67, 5], [68, 35], [69, 59], [70, 68], [71, 38], [72, 61], [73, 1], [74, 3], [75, 74]]
A Solution was found
Objective value: 544.4
Problem solved in 256413 iterations
Problem solved in 5110 nodes
Final Route Configuration succesfully created at:
data/routes/eil76.csv
